Maximize
F - f1 - f2

Subject to
F - 6y16 - 3y19 - 12y153 - 3y154 - 6y159 - 6y194 - 3y215 - 9y232 - 6y240 - 9y259 - 12y251 - 6y148 - 9y59 - 9y64 - 6y84 - 3y60 - 3y37 - 6y156 - 3y131 - 3y126 - 6y226 - 9y70 - 9y90 - 3y187 = 0
f1 - 0.005992s16 - 0.005992s19 - 0.005992s153 - 0.005992s154 - 0.005992s159 - 0.005992s194 - 0.005992s215 - 0.005992s232 - 0.005992s240 - 0.005992s259 - 0.005992s251 - 0.005992s148 - 0.005992s59 - 0.005992s64 - 0.005992s84 - 0.005992s60 - 0.005992s37 - 0.005992s156 - 0.005992s131 - 0.005992s126 - 0.005992s226 - 0.005992s70 - 0.005992s90 - 0.005992s187  = 0
f2 - 1.58y16 - 3.02y19 - 2.27y153 - 2.61y154 - 2.47y159 - 2.34y194 - 1.99y215 - 2.54y232 - 2.60y240 - 2.43y259 - 1.03y251 - 0.89y148 - 0.94y59 - 0.79y64 - 1.39y84 - 0.47y60 - 0.32y37 - 0.27y156 - 0.38y131 - 0.45y126 - 0.36y226 - 0.09y70 - 0.35y90 - 0.32y187 = 0

x135x251x1 + x135x156x1 + x135x131x1 + x135x226x1 + x135x70x1 + x135x90x1 + x135x187x1 
<= 1
x262x156x1 + x262x131x1 + x262x226x1 + x262x70x1 + x262x90x1 + x262x187x1 
<= 1
x261x156x1 + x261x131x1 + x261x226x1 + x261x70x1 + x261x90x1 + x261x187x1 
<= 1
x186x153x1 + x186x159x1 + x186x240x1 + x186x251x1 + x186x156x1 + x186x131x1 + x186x226x1 + x186x70x1 + x186x90x1 + x186x187x1 
<= 1
x167x153x1 + x167x159x1 + x167x251x1 + x167x156x1 + x167x131x1 + x167x226x1 + x167x70x1 + x167x90x1 + x167x187x1 
<= 1
x181x153x1 + x181x159x1 + x181x251x1 + x181x156x1 + x181x131x1 + x181x226x1 + x181x70x1 + x181x90x1 + x181x187x1 
<= 1
x235x153x1 + x235x159x1 + x235x251x1 + x235x156x1 + x235x131x1 + x235x226x1 + x235x70x1 + x235x90x1 + x235x187x1 
<= 2
x113x153x1 + x113x159x1 + x113x251x1 + x113x156x1 + x113x131x1 + x113x226x1 + x113x70x1 + x113x90x1 + x113x187x1 
<= 1
x135x148x2 + x135x59x2 + x135x64x2 + x135x84x2 + x135x60x2 + x135x156x2 + x135x126x2 + x135x187x2 
<= 1
x53x59x2 + x53x60x2 + x53x156x2 + x53x126x2 + x53x187x2 
<= 2
x186x16x2 + x186x19x2 + x186x154x2 + x186x159x2 + x186x194x2 + x186x259x2 + x186x148x2 + x186x59x2 + x186x64x2 + x186x84x2 + x186x60x2 + x186x156x2 + x186x126x2 + x186x187x2 
<= 1
x35x16x2 + x35x154x2 + x35x159x2 + x35x194x2 + x35x148x2 + x35x59x2 + x35x64x2 + x35x84x2 + x35x60x2 + x35x156x2 + x35x126x2 + x35x187x2 
<= 2
x167x16x2 + x167x154x2 + x167x159x2 + x167x194x2 + x167x148x2 + x167x59x2 + x167x64x2 + x167x84x2 + x167x60x2 + x167x156x2 + x167x126x2 + x167x187x2 
<= 1
x27x159x2 + x27x148x2 + x27x59x2 + x27x64x2 + x27x84x2 + x27x60x2 + x27x156x2 + x27x126x2 + x27x187x2 
<= 2
x214x70x3 + x214x90x3 
<= 2
x100x16x3 + x100x64x3 + x100x37x3 + x100x70x3 + x100x90x3 
<= 2
x262x37x3 + x262x70x3 + x262x90x3 
<= 1
x261x37x3 + x261x70x3 + x261x90x3 
<= 1
x181x16x3 + x181x154x3 + x181x194x3 + x181x215x3 + x181x232x3 + x181x64x3 + x181x37x3 + x181x70x3 + x181x90x3 
<= 1
x113x16x3 + x113x215x3 + x113x64x3 + x113x37x3 + x113x70x3 + x113x90x3 
<= 1
x243x16x3 + x243x154x3 + x243x194x3 + x243x215x3 + x243x232x3 + x243x240x3 + x243x64x3 + x243x37x3 + x243x70x3 + x243x90x3 
<= 1


x186x16x2 + x35x16x2 + x167x16x2 
- x16x0x2
- x16x60x2 - x16x156x2 - x16x126x2 - x16x187x2 
= 0
x100x16x3 + x181x16x3 + x113x16x3 + x243x16x3 
- x16x0x3
- x16x37x3 - x16x70x3 - x16x90x3 
= 0


x186x19x2 
- x19x0x2
- x19x126x2 - x19x187x2 
= 0


x186x153x1 + x167x153x1 + x181x153x1 + x235x153x1 + x113x153x1 
- x153x0x1
- x153x156x1 - x153x131x1 - x153x226x1 - x153x70x1 - x153x90x1 - x153x187x1 
= 0




x186x154x2 + x35x154x2 + x167x154x2 
- x154x0x2
- x154x156x2 - x154x126x2 - x154x187x2 
= 0
x181x154x3 + x243x154x3 
- x154x0x3
- x154x37x3 - x154x70x3 - x154x90x3 
= 0

x186x159x1 + x167x159x1 + x181x159x1 + x235x159x1 + x113x159x1 
- x159x0x1
- x159x156x1 - x159x131x1 - x159x226x1 - x159x70x1 - x159x90x1 - x159x187x1 
= 0
x186x159x2 + x35x159x2 + x167x159x2 + x27x159x2 
- x159x0x2
- x159x156x2 - x159x126x2 - x159x187x2 
= 0



x186x194x2 + x35x194x2 + x167x194x2 
- x194x0x2
- x194x60x2 - x194x156x2 - x194x126x2 - x194x187x2 
= 0
x181x194x3 + x243x194x3 
- x194x0x3
- x194x37x3 - x194x70x3 - x194x90x3 
= 0



x181x215x3 + x113x215x3 + x243x215x3 
- x215x0x3
- x215x37x3 - x215x70x3 - x215x90x3 
= 0



x181x232x3 + x243x232x3 
- x232x0x3
- x232x37x3 - x232x70x3 - x232x90x3 
= 0

x186x240x1 
- x240x0x1
- x240x156x1 - x240x131x1 - x240x226x1 - x240x70x1 - x240x90x1 - x240x187x1 
= 0

x243x240x3 
- x240x0x3
- x240x37x3 - x240x70x3 - x240x90x3 
= 0


x186x259x2 
- x259x0x2
- x259x60x2 - x259x156x2 - x259x126x2 - x259x187x2 
= 0


x135x251x1 + x186x251x1 + x167x251x1 + x181x251x1 + x235x251x1 + x113x251x1 
- x251x0x1
- x251x156x1 - x251x131x1 - x251x226x1 - x251x70x1 - x251x90x1 - x251x187x1 
= 0




x135x148x2 + x186x148x2 + x35x148x2 + x167x148x2 + x27x148x2 
- x148x0x2
- x148x64x2 - x148x60x2 - x148x156x2 - x148x126x2 - x148x187x2 
= 0



x135x59x2 + x53x59x2 + x186x59x2 + x35x59x2 + x167x59x2 + x27x59x2 
- x59x0x2
- x59x60x2 - x59x156x2 - x59x126x2 - x59x187x2 
= 0



x135x64x2 + x186x64x2 + x35x64x2 + x167x64x2 + x27x64x2 + x148x64x2 
- x64x0x2
- x64x60x2 - x64x156x2 - x64x126x2 - x64x187x2 
= 0
x100x64x3 + x181x64x3 + x113x64x3 + x243x64x3 
- x64x0x3
- x64x37x3 - x64x70x3 - x64x90x3 
= 0


x135x84x2 + x186x84x2 + x35x84x2 + x167x84x2 + x27x84x2 
- x84x0x2
- x84x156x2 - x84x126x2 - x84x187x2 
= 0



x135x60x2 + x53x60x2 + x186x60x2 + x35x60x2 + x167x60x2 + x27x60x2 + x16x60x2 + x194x60x2 + x259x60x2 + x148x60x2 + x59x60x2 + x64x60x2 
- x60x0x2
- x60x156x2 - x60x126x2 - x60x187x2 
= 0




x100x37x3 + x262x37x3 + x261x37x3 + x181x37x3 + x113x37x3 + x243x37x3 + x16x37x3 + x154x37x3 + x194x37x3 + x215x37x3 + x232x37x3 + x240x37x3 + x64x37x3 
- x37x0x3
- x37x70x3 - x37x90x3 
= 0

x135x156x1 + x262x156x1 + x261x156x1 + x186x156x1 + x167x156x1 + x181x156x1 + x235x156x1 + x113x156x1 + x153x156x1 + x159x156x1 + x240x156x1 + x251x156x1 
- x156x0x1
- x156x70x1 - x156x90x1 - x156x187x1 
= 0
x135x156x2 + x53x156x2 + x186x156x2 + x35x156x2 + x167x156x2 + x27x156x2 + x16x156x2 + x154x156x2 + x159x156x2 + x194x156x2 + x259x156x2 + x148x156x2 + x59x156x2 + x64x156x2 + x84x156x2 + x60x156x2 
- x156x0x2
- x156x187x2 
= 0


x135x131x1 + x262x131x1 + x261x131x1 + x186x131x1 + x167x131x1 + x181x131x1 + x235x131x1 + x113x131x1 + x153x131x1 + x159x131x1 + x240x131x1 + x251x131x1 
- x131x0x1
- x131x70x1 - x131x90x1 
= 0




x135x126x2 + x53x126x2 + x186x126x2 + x35x126x2 + x167x126x2 + x27x126x2 + x16x126x2 + x19x126x2 + x154x126x2 + x159x126x2 + x194x126x2 + x259x126x2 + x148x126x2 + x59x126x2 + x64x126x2 + x84x126x2 + x60x126x2 
- x126x0x2

= 0


x135x226x1 + x262x226x1 + x261x226x1 + x186x226x1 + x167x226x1 + x181x226x1 + x235x226x1 + x113x226x1 + x153x226x1 + x159x226x1 + x240x226x1 + x251x226x1 
- x226x0x1
- x226x187x1 
= 0



x135x70x1 + x262x70x1 + x261x70x1 + x186x70x1 + x167x70x1 + x181x70x1 + x235x70x1 + x113x70x1 + x153x70x1 + x159x70x1 + x240x70x1 + x251x70x1 + x156x70x1 + x131x70x1 
- x70x0x1

= 0

x214x70x3 + x100x70x3 + x262x70x3 + x261x70x3 + x181x70x3 + x113x70x3 + x243x70x3 + x16x70x3 + x154x70x3 + x194x70x3 + x215x70x3 + x232x70x3 + x240x70x3 + x64x70x3 + x37x70x3 
- x70x0x3

= 0

x135x90x1 + x262x90x1 + x261x90x1 + x186x90x1 + x167x90x1 + x181x90x1 + x235x90x1 + x113x90x1 + x153x90x1 + x159x90x1 + x240x90x1 + x251x90x1 + x156x90x1 + x131x90x1 
- x90x0x1

= 0

x214x90x3 + x100x90x3 + x262x90x3 + x261x90x3 + x181x90x3 + x113x90x3 + x243x90x3 + x16x90x3 + x154x90x3 + x194x90x3 + x215x90x3 + x232x90x3 + x240x90x3 + x64x90x3 + x37x90x3 
- x90x0x3

= 0

x135x187x1 + x262x187x1 + x261x187x1 + x186x187x1 + x167x187x1 + x181x187x1 + x235x187x1 + x113x187x1 + x153x187x1 + x159x187x1 + x240x187x1 + x251x187x1 + x156x187x1 + x226x187x1 
- x187x0x1

= 0
x135x187x2 + x53x187x2 + x186x187x2 + x35x187x2 + x167x187x2 + x27x187x2 + x16x187x2 + x19x187x2 + x154x187x2 + x159x187x2 + x194x187x2 + x259x187x2 + x148x187x2 + x59x187x2 + x64x187x2 + x84x187x2 + x60x187x2 + x156x187x2 
- x187x0x2

= 0


1y16 - x186x16x2 - x35x16x2 - x167x16x2 = 0
1y16 - x100x16x3 - x181x16x3 - x113x16x3 - x243x16x3 = 0
2y19 - x186x19x2 = 0
2y153 - x186x153x1 - x167x153x1 - x181x153x1 - x235x153x1 - x113x153x1 = 0
1y154 - x186x154x2 - x35x154x2 - x167x154x2 = 0
1y154 - x181x154x3 - x243x154x3 = 0
1y159 - x186x159x1 - x167x159x1 - x181x159x1 - x235x159x1 - x113x159x1 = 0
1y159 - x186x159x2 - x35x159x2 - x167x159x2 - x27x159x2 = 0
1y194 - x186x194x2 - x35x194x2 - x167x194x2 = 0
1y194 - x181x194x3 - x243x194x3 = 0
2y215 - x181x215x3 - x113x215x3 - x243x215x3 = 0
2y232 - x181x232x3 - x243x232x3 = 0
1y240 - x186x240x1 = 0
1y240 - x243x240x3 = 0
2y259 - x186x259x2 = 0
2y251 - x135x251x1 - x186x251x1 - x167x251x1 - x181x251x1 - x235x251x1 - x113x251x1 = 0
2y148 - x135x148x2 - x186x148x2 - x35x148x2 - x167x148x2 - x27x148x2 = 0
2y59 - x135x59x2 - x53x59x2 - x186x59x2 - x35x59x2 - x167x59x2 - x27x59x2 = 0
1y64 - x135x64x2 - x186x64x2 - x35x64x2 - x167x64x2 - x27x64x2 - x148x64x2 = 0
1y64 - x100x64x3 - x181x64x3 - x113x64x3 - x243x64x3 = 0
2y84 - x135x84x2 - x186x84x2 - x35x84x2 - x167x84x2 - x27x84x2 = 0
2y60 - x135x60x2 - x53x60x2 - x186x60x2 - x35x60x2 - x167x60x2 - x27x60x2 - x16x60x2 - x194x60x2 - x259x60x2 - x148x60x2 - x59x60x2 - x64x60x2 = 0
2y37 - x100x37x3 - x262x37x3 - x261x37x3 - x181x37x3 - x113x37x3 - x243x37x3 - x16x37x3 - x154x37x3 - x194x37x3 - x215x37x3 - x232x37x3 - x240x37x3 - x64x37x3 = 0
1y156 - x135x156x1 - x262x156x1 - x261x156x1 - x186x156x1 - x167x156x1 - x181x156x1 - x235x156x1 - x113x156x1 - x153x156x1 - x159x156x1 - x240x156x1 - x251x156x1 = 0
1y156 - x135x156x2 - x53x156x2 - x186x156x2 - x35x156x2 - x167x156x2 - x27x156x2 - x16x156x2 - x154x156x2 - x159x156x2 - x194x156x2 - x259x156x2 - x148x156x2 - x59x156x2 - x64x156x2 - x84x156x2 - x60x156x2 = 0
2y131 - x135x131x1 - x262x131x1 - x261x131x1 - x186x131x1 - x167x131x1 - x181x131x1 - x235x131x1 - x113x131x1 - x153x131x1 - x159x131x1 - x240x131x1 - x251x131x1 = 0
2y126 - x135x126x2 - x53x126x2 - x186x126x2 - x35x126x2 - x167x126x2 - x27x126x2 - x16x126x2 - x19x126x2 - x154x126x2 - x159x126x2 - x194x126x2 - x259x126x2 - x148x126x2 - x59x126x2 - x64x126x2 - x84x126x2 - x60x126x2 = 0
2y226 - x135x226x1 - x262x226x1 - x261x226x1 - x186x226x1 - x167x226x1 - x181x226x1 - x235x226x1 - x113x226x1 - x153x226x1 - x159x226x1 - x240x226x1 - x251x226x1 = 0
1y70 - x135x70x1 - x262x70x1 - x261x70x1 - x186x70x1 - x167x70x1 - x181x70x1 - x235x70x1 - x113x70x1 - x153x70x1 - x159x70x1 - x240x70x1 - x251x70x1 - x156x70x1 - x131x70x1 = 0
1y70 - x214x70x3 - x100x70x3 - x262x70x3 - x261x70x3 - x181x70x3 - x113x70x3 - x243x70x3 - x16x70x3 - x154x70x3 - x194x70x3 - x215x70x3 - x232x70x3 - x240x70x3 - x64x70x3 - x37x70x3 = 0
1y90 - x135x90x1 - x262x90x1 - x261x90x1 - x186x90x1 - x167x90x1 - x181x90x1 - x235x90x1 - x113x90x1 - x153x90x1 - x159x90x1 - x240x90x1 - x251x90x1 - x156x90x1 - x131x90x1 = 0
1y90 - x214x90x3 - x100x90x3 - x262x90x3 - x261x90x3 - x181x90x3 - x113x90x3 - x243x90x3 - x16x90x3 - x154x90x3 - x194x90x3 - x215x90x3 - x232x90x3 - x240x90x3 - x64x90x3 - x37x90x3 = 0
1y187 - x135x187x1 - x262x187x1 - x261x187x1 - x186x187x1 - x167x187x1 - x181x187x1 - x235x187x1 - x113x187x1 - x153x187x1 - x159x187x1 - x240x187x1 - x251x187x1 - x156x187x1 - x226x187x1 = 0
1y187 - x135x187x2 - x53x187x2 - x186x187x2 - x35x187x2 - x167x187x2 - x27x187x2 - x16x187x2 - x19x187x2 - x154x187x2 - x159x187x2 - x194x187x2 - x259x187x2 - x148x187x2 - x59x187x2 - x64x187x2 - x84x187x2 - x60x187x2 - x156x187x2 = 0

s135 - s251 + 6.845177z135z251z1 <= 5.64
s135 - s148 + 6.927616z135z148z2 <= 5.64
s135 - s59 + 6.866243z135z59z2 <= 5.64
s135 - s64 + 7.014642z135z64z2 <= 5.64
s135 - s84 + 7.057980z135z84z2 <= 5.64
s135 - s60 + 6.957081z135z60z2 <= 5.64
s135 - s156 + 7.038958z135z156z1 <= 5.64
s135 - s156 + 7.038958z135z156z2 <= 5.64
s135 - s131 + 6.944344z135z131z1 <= 5.64
s135 - s126 + 6.899767z135z126z2 <= 5.64
s135 - s226 + 7.139291z135z226z1 <= 5.64
s135 - s70 + 7.036175z135z70z1 <= 5.64
s135 - s90 + 6.898489z135z90z1 <= 5.64
s135 - s187 + 7.181153z135z187z1 <= 5.64
s135 - s187 + 7.181153z135z187z2 <= 5.64
s214 - s70 + 7.526385z214z70z3 <= 5.91
s214 - s90 + 7.457618z214z90z3 <= 5.91
s53 - s59 + 7.031358z53z59z2 <= 5.87
s53 - s60 + 7.118011z53z60z2 <= 5.87
s53 - s156 + 7.201101z53z156z2 <= 5.87
s53 - s126 + 7.056323z53z126z2 <= 5.87
s53 - s187 + 7.349380z53z187z2 <= 5.87
s100 - s16 + 6.513068z100z16z3 <= 5.32
s100 - s64 + 6.660386z100z64z3 <= 5.32
s100 - s37 + 6.628980z100z37z3 <= 5.32
s100 - s70 + 6.662828z100z70z3 <= 5.32
s100 - s90 + 6.515764z100z90z3 <= 5.32
s262 - s37 + 7.164792z262z37z3 <= 5.89
s262 - s156 + 7.207253z262z156z1 <= 5.89
s262 - s131 + 7.103561z262z131z1 <= 5.89
s262 - s226 + 7.325479z262z226z1 <= 5.89
s262 - s70 + 7.190189z262z70z1 <= 5.89
s262 - s70 + 7.190189z262z70z3 <= 5.89
s262 - s90 + 7.037588z262z90z1 <= 5.89
s262 - s90 + 7.037588z262z90z3 <= 5.89
s262 - s187 + 7.367705z262z187z1 <= 5.89
s261 - s37 + 7.156918z261z37z3 <= 5.99
s261 - s156 + 7.197377z261z156z1 <= 5.99
s261 - s131 + 7.100479z261z131z1 <= 5.99
s261 - s226 + 7.317551z261z226z1 <= 5.99
s261 - s70 + 7.175356z261z70z1 <= 5.99
s261 - s70 + 7.175356z261z70z3 <= 5.99
s261 - s90 + 7.039892z261z90z1 <= 5.99
s261 - s90 + 7.039892z261z90z3 <= 5.99
s261 - s187 + 7.358581z261z187z1 <= 5.99
s186 - s16 + 6.221915z186z16z2 <= 4.70
s186 - s19 + 6.089864z186z19z2 <= 4.70
s186 - s153 + 6.187106z186z153z1 <= 4.70
s186 - s154 + 6.153160z186z154z2 <= 4.70
s186 - s159 + 6.207971z186z159z1 <= 4.70
s186 - s159 + 6.207971z186z159z2 <= 4.70
s186 - s194 + 6.173878z186z194z2 <= 4.70
s186 - s240 + 6.077655z186z240z1 <= 4.70
s186 - s259 + 6.123423z186z259z2 <= 4.70
s186 - s251 + 6.280605z186z251z1 <= 4.70
s186 - s148 + 6.336001z186z148z2 <= 4.70
s186 - s59 + 6.298498z186z59z2 <= 4.70
s186 - s64 + 6.397216z186z64z2 <= 4.70
s186 - s84 + 6.369036z186z84z2 <= 4.70
s186 - s60 + 6.388514z186z60z2 <= 4.70
s186 - s156 + 6.455050z186z156z1 <= 4.70
s186 - s156 + 6.455050z186z156z2 <= 4.70
s186 - s131 + 6.387443z186z131z1 <= 4.70
s186 - s126 + 6.357247z186z126z2 <= 4.70
s186 - s226 + 6.516813z186z226z1 <= 4.70
s186 - s70 + 6.466201z186z70z1 <= 4.70
s186 - s90 + 6.363235z186z90z1 <= 4.70
s186 - s187 + 6.550981z186z187z1 <= 4.70
s186 - s187 + 6.550981z186z187z2 <= 4.70
s35 - s16 + 6.261109z35z16z2 <= 4.86
s35 - s154 + 6.380993z35z154z2 <= 4.86
s35 - s159 + 6.433857z35z159z2 <= 4.86
s35 - s194 + 6.358188z35z194z2 <= 4.86
s35 - s148 + 6.324914z35z148z2 <= 4.86
s35 - s59 + 6.258953z35z59z2 <= 4.86
s35 - s64 + 6.414587z35z64z2 <= 4.86
s35 - s84 + 6.476682z35z84z2 <= 4.86
s35 - s60 + 6.335410z35z60z2 <= 4.86
s35 - s156 + 6.418367z35z156z2 <= 4.86
s35 - s126 + 6.262979z35z126z2 <= 4.86
s35 - s187 + 6.574327z35z187z2 <= 4.86
s167 - s16 + 6.341796z167z16z2 <= 4.78
s167 - s153 + 6.463573z167z153z1 <= 4.78
s167 - s154 + 6.490324z167z154z2 <= 4.78
s167 - s159 + 6.536896z167z159z1 <= 4.78
s167 - s159 + 6.536896z167z159z2 <= 4.78
s167 - s194 + 6.461211z167z194z2 <= 4.78
s167 - s251 + 6.295361z167z251z1 <= 4.78
s167 - s148 + 6.372441z167z148z2 <= 4.78
s167 - s59 + 6.309787z167z59z2 <= 4.78
s167 - s64 + 6.457289z167z64z2 <= 4.78
s167 - s84 + 6.543106z167z84z2 <= 4.78
s167 - s60 + 6.361868z167z60z2 <= 4.78
s167 - s156 + 6.436985z167z156z1 <= 4.78
s167 - s156 + 6.436985z167z156z2 <= 4.78
s167 - s131 + 6.336060z167z131z1 <= 4.78
s167 - s126 + 6.286090z167z126z2 <= 4.78
s167 - s226 + 6.556990z167z226z1 <= 4.78
s167 - s70 + 6.414936z167z70z1 <= 4.78
s167 - s90 + 6.269450z167z90z1 <= 4.78
s167 - s187 + 6.598341z167z187z1 <= 4.78
s167 - s187 + 6.598341z167z187z2 <= 4.78
s181 - s16 + 6.263254z181z16z3 <= 4.88
s181 - s153 + 6.259436z181z153z1 <= 4.88
s181 - s154 + 6.238610z181z154z3 <= 4.88
s181 - s159 + 6.299246z181z159z1 <= 4.88
s181 - s194 + 6.247193z181z194z3 <= 4.88
s181 - s215 + 6.204129z181z215z3 <= 4.88
s181 - s232 + 6.103121z181z232z3 <= 4.88
s181 - s251 + 6.313007z181z251z1 <= 4.88
s181 - s64 + 6.446225z181z64z3 <= 4.88
s181 - s37 + 6.463633z181z37z3 <= 4.88
s181 - s156 + 6.496353z181z156z1 <= 4.88
s181 - s131 + 6.420504z181z131z1 <= 4.88
s181 - s226 + 6.570333z181z226z1 <= 4.88
s181 - s70 + 6.503915z181z70z1 <= 4.88
s181 - s70 + 6.503915z181z70z3 <= 4.88
s181 - s90 + 6.390738z181z90z1 <= 4.88
s181 - s90 + 6.390738z181z90z3 <= 4.88
s181 - s187 + 6.607512z181z187z1 <= 4.88
s27 - s159 + 6.768107z27z159z2 <= 4.92
s27 - s148 + 6.948936z27z148z2 <= 4.92
s27 - s59 + 6.919557z27z59z2 <= 4.92
s27 - s64 + 6.997999z27z64z2 <= 4.92
s27 - s84 + 6.945505z27z84z2 <= 4.92
s27 - s60 + 7.005502z27z60z2 <= 4.92
s27 - s156 + 7.064278z27z156z2 <= 4.92
s27 - s126 + 6.982335z27z126z2 <= 4.92
s27 - s187 + 7.136722z27z187z2 <= 4.92
s235 - s153 + 6.485979z235z153z1 <= 5.11
s235 - s159 + 6.503404z235z159z1 <= 5.11
s235 - s251 + 6.599872z235z251z1 <= 5.11
s235 - s156 + 6.764524z235z156z1 <= 5.11
s235 - s131 + 6.704544z235z131z1 <= 5.11
s235 - s226 + 6.819280z235z226z1 <= 5.11
s235 - s70 + 6.778276z235z70z1 <= 5.11
s235 - s90 + 6.687649z235z90z1 <= 5.11
s235 - s187 + 6.852110z235z187z1 <= 5.11
s113 - s16 + 6.372993z113z16z3 <= 4.99
s113 - s153 + 6.486094z113z153z1 <= 4.99
s113 - s159 + 6.558649z113z159z1 <= 4.99
s113 - s215 + 6.363423z113z215z3 <= 4.99
s113 - s251 + 6.341071z113z251z1 <= 4.99
s113 - s64 + 6.513656z113z64z3 <= 4.99
s113 - s37 + 6.468096z113z37z3 <= 4.99
s113 - s156 + 6.510781z113z156z1 <= 4.99
s113 - s131 + 6.406651z113z131z1 <= 4.99
s113 - s226 + 6.626655z113z226z1 <= 4.99
s113 - s70 + 6.495760z113z70z1 <= 4.99
s113 - s70 + 6.495760z113z70z3 <= 4.99
s113 - s90 + 6.342350z113z90z1 <= 4.99
s113 - s90 + 6.342350z113z90z3 <= 4.99
s113 - s187 + 6.669255z113z187z1 <= 4.99
s243 - s16 + 5.261674z243z16z3 <= 3.71
s243 - s154 + 5.312875z243z154z3 <= 3.71
s243 - s194 + 5.307003z243z194z3 <= 3.71
s243 - s215 + 5.219029z243z215z3 <= 3.71
s243 - s232 + 5.128511z243z232z3 <= 3.71
s243 - s240 + 5.179705z243z240z3 <= 3.71
s243 - s64 + 5.441754z243z64z3 <= 3.71
s243 - s37 + 5.425393z243z37z3 <= 3.71
s243 - s70 + 5.460925z243z70z3 <= 3.71
s243 - s90 + 5.314673z243z90z3 <= 3.71
s16 - s60 + 7.798655z16z60z2 <= 6.63
s16 - s37 + 7.833961z16z37z3 <= 6.63
s16 - s156 + 7.863714z16z156z2 <= 6.63
s16 - s126 + 7.790277z16z126z2 <= 6.63
s16 - s70 + 7.874495z16z70z3 <= 6.63
s16 - s90 + 7.804992z16z90z3 <= 6.63
s16 - s187 + 7.982073z16z187z2 <= 6.63
s19 - s126 + 7.692564z19z126z2 <= 6.31
s19 - s187 + 7.787121z19z187z2 <= 6.31
s153 - s156 + 7.824339z153z156z1 <= 6.52
s153 - s131 + 7.803471z153z131z1 <= 6.52
s153 - s226 + 7.856584z153z226z1 <= 6.52
s153 - s70 + 7.847279z153z70z1 <= 6.52
s153 - s90 + 7.824339z153z90z1 <= 6.52
s153 - s187 + 7.887212z153z187z1 <= 6.52
s154 - s37 + 7.842669z154z37z3 <= 6.50
s154 - s156 + 7.855590z154z156z2 <= 6.50
s154 - s126 + 7.836518z154z126z2 <= 6.50
s154 - s70 + 7.879063z154z70z3 <= 6.50
s154 - s90 + 7.853333z154z90z3 <= 6.50
s154 - s187 + 7.910149z154z187z2 <= 6.50
s159 - s156 + 8.160588z159z156z1 <= 6.82
s159 - s156 + 8.160588z159z156z2 <= 6.82
s159 - s131 + 8.158493z159z131z1 <= 6.82
s159 - s126 + 8.169285z159z126z2 <= 6.82
s159 - s226 + 8.168011z159z226z1 <= 6.82
s159 - s70 + 8.187817z159z70z1 <= 6.82
s159 - s90 + 8.187696z159z90z1 <= 6.82
s159 - s187 + 8.191902z159z187z1 <= 6.82
s159 - s187 + 8.191902z159z187z2 <= 6.82
s194 - s60 + 7.758488z194z60z2 <= 6.48
s194 - s37 + 7.781478z194z37z3 <= 6.48
s194 - s156 + 7.796087z194z156z2 <= 6.48
s194 - s126 + 7.774014z194z126z2 <= 6.48
s194 - s70 + 7.818493z194z70z3 <= 6.48
s194 - s90 + 7.790984z194z90z3 <= 6.48
s194 - s187 + 7.860526z194z187z2 <= 6.48
s215 - s37 + 7.665414z215z37z3 <= 6.40
s215 - s70 + 7.705941z215z70z3 <= 6.40
s215 - s90 + 7.627059z215z90z3 <= 6.40
s232 - s37 + 7.491540z232z37z3 <= 6.13
s232 - s70 + 7.531995z232z70z3 <= 6.13
s232 - s90 + 7.431257z232z90z3 <= 6.13
s240 - s37 + 7.440872z240z37z3 <= 6.09
s240 - s156 + 7.468124z240z156z1 <= 6.09
s240 - s131 + 7.409513z240z131z1 <= 6.09
s240 - s226 + 7.531815z240z226z1 <= 6.09
s240 - s70 + 7.481294z240z70z1 <= 6.09
s240 - s70 + 7.481294z240z70z3 <= 6.09
s240 - s90 + 7.400770z240z90z1 <= 6.09
s240 - s90 + 7.400770z240z90z3 <= 6.09
s240 - s187 + 7.568006z240z187z1 <= 6.09
s259 - s60 + 7.526278z259z60z2 <= 6.24
s259 - s156 + 7.579738z259z156z2 <= 6.24
s259 - s126 + 7.523000z259z126z2 <= 6.24
s259 - s187 + 7.667967z259z187z2 <= 6.24
s251 - s156 + 8.214136z251z156z1 <= 7.02
s251 - s131 + 8.127497z251z131z1 <= 7.02
s251 - s226 + 8.316123z251z226z1 <= 7.02
s251 - s70 + 8.214365z251z70z1 <= 7.02
s251 - s90 + 8.114281z251z90z1 <= 7.02
s251 - s187 + 8.358494z251z187z1 <= 7.02
s148 - s64 + 8.119691z148z64z2 <= 7.03
s148 - s60 + 8.091464z148z60z2 <= 7.03
s148 - s156 + 8.150001z148z156z2 <= 7.03
s148 - s126 + 8.130000z148z126z2 <= 7.03
s148 - s187 + 8.283859z148z187z2 <= 7.03
s59 - s60 + 8.143571z59z60z2 <= 7.05
s59 - s156 + 8.223077z59z156z2 <= 7.05
s59 - s126 + 8.120868z59z126z2 <= 7.05
s59 - s187 + 8.368050z59z187z2 <= 7.05
s64 - s60 + 8.241981z64z60z2 <= 7.14
s64 - s37 + 8.228945z64z37z3 <= 7.14
s64 - s156 + 8.220277z64z156z2 <= 7.14
s64 - s126 + 8.313334z64z126z2 <= 7.14
s64 - s70 + 8.250956z64z70z3 <= 7.14
s64 - s90 + 8.331949z64z90z3 <= 7.14
s64 - s187 + 8.307199z64z187z2 <= 7.14
s84 - s156 + 8.363792z84z156z2 <= 7.17
s84 - s126 + 8.445358z84z126z2 <= 7.17
s84 - s187 + 8.362411z84z187z2 <= 7.17
s60 - s156 + 8.403533z60z156z2 <= 7.32
s60 - s126 + 8.396011z60z126z2 <= 7.32
s60 - s187 + 8.560463z60z187z2 <= 7.32
s37 - s70 + 8.430552z37z70z3 <= 7.39
s37 - s90 + 8.517366z37z90z3 <= 7.39
s156 - s70 + 8.443994z156z70z1 <= 7.41
s156 - s90 + 8.579705z156z90z1 <= 7.41
s156 - s187 + 8.571383z156z187z1 <= 7.41
s156 - s187 + 8.571383z156z187z2 <= 7.41
s131 - s70 + 8.512856z131z70z1 <= 7.42
s131 - s90 + 8.486667z131z90z1 <= 7.42
s226 - s187 + 8.572688z226z187z1 <= 7.53

x135x251x1 - 2z135z251z1 <= 0
x135x148x2 - 2z135z148z2 <= 0
x135x59x2 - 2z135z59z2 <= 0
x135x64x2 - 1z135z64z2 <= 0
x135x84x2 - 2z135z84z2 <= 0
x135x60x2 - 2z135z60z2 <= 0
x135x156x1 - 1z135z156z1 <= 0
x135x156x2 - 1z135z156z2 <= 0
x135x131x1 - 2z135z131z1 <= 0
x135x126x2 - 2z135z126z2 <= 0
x135x226x1 - 2z135z226z1 <= 0
x135x70x1 - 1z135z70z1 <= 0
x135x90x1 - 1z135z90z1 <= 0
x135x187x1 - 1z135z187z1 <= 0
x135x187x2 - 1z135z187z2 <= 0
x214x70x3 - 1z214z70z3 <= 0
x214x90x3 - 1z214z90z3 <= 0
x53x59x2 - 2z53z59z2 <= 0
x53x60x2 - 2z53z60z2 <= 0
x53x156x2 - 1z53z156z2 <= 0
x53x126x2 - 2z53z126z2 <= 0
x53x187x2 - 1z53z187z2 <= 0
x100x16x3 - 1z100z16z3 <= 0
x100x64x3 - 1z100z64z3 <= 0
x100x37x3 - 2z100z37z3 <= 0
x100x70x3 - 1z100z70z3 <= 0
x100x90x3 - 1z100z90z3 <= 0
x262x37x3 - 2z262z37z3 <= 0
x262x156x1 - 1z262z156z1 <= 0
x262x131x1 - 2z262z131z1 <= 0
x262x226x1 - 2z262z226z1 <= 0
x262x70x1 - 1z262z70z1 <= 0
x262x70x3 - 1z262z70z3 <= 0
x262x90x1 - 1z262z90z1 <= 0
x262x90x3 - 1z262z90z3 <= 0
x262x187x1 - 1z262z187z1 <= 0
x261x37x3 - 2z261z37z3 <= 0
x261x156x1 - 1z261z156z1 <= 0
x261x131x1 - 2z261z131z1 <= 0
x261x226x1 - 2z261z226z1 <= 0
x261x70x1 - 1z261z70z1 <= 0
x261x70x3 - 1z261z70z3 <= 0
x261x90x1 - 1z261z90z1 <= 0
x261x90x3 - 1z261z90z3 <= 0
x261x187x1 - 1z261z187z1 <= 0
x186x16x2 - 1z186z16z2 <= 0
x186x19x2 - 2z186z19z2 <= 0
x186x153x1 - 2z186z153z1 <= 0
x186x154x2 - 1z186z154z2 <= 0
x186x159x1 - 1z186z159z1 <= 0
x186x159x2 - 1z186z159z2 <= 0
x186x194x2 - 1z186z194z2 <= 0
x186x240x1 - 1z186z240z1 <= 0
x186x259x2 - 2z186z259z2 <= 0
x186x251x1 - 2z186z251z1 <= 0
x186x148x2 - 2z186z148z2 <= 0
x186x59x2 - 2z186z59z2 <= 0
x186x64x2 - 1z186z64z2 <= 0
x186x84x2 - 2z186z84z2 <= 0
x186x60x2 - 2z186z60z2 <= 0
x186x156x1 - 1z186z156z1 <= 0
x186x156x2 - 1z186z156z2 <= 0
x186x131x1 - 2z186z131z1 <= 0
x186x126x2 - 2z186z126z2 <= 0
x186x226x1 - 2z186z226z1 <= 0
x186x70x1 - 1z186z70z1 <= 0
x186x90x1 - 1z186z90z1 <= 0
x186x187x1 - 1z186z187z1 <= 0
x186x187x2 - 1z186z187z2 <= 0
x35x16x2 - 1z35z16z2 <= 0
x35x154x2 - 1z35z154z2 <= 0
x35x159x2 - 1z35z159z2 <= 0
x35x194x2 - 1z35z194z2 <= 0
x35x148x2 - 2z35z148z2 <= 0
x35x59x2 - 2z35z59z2 <= 0
x35x64x2 - 1z35z64z2 <= 0
x35x84x2 - 2z35z84z2 <= 0
x35x60x2 - 2z35z60z2 <= 0
x35x156x2 - 1z35z156z2 <= 0
x35x126x2 - 2z35z126z2 <= 0
x35x187x2 - 1z35z187z2 <= 0
x167x16x2 - 1z167z16z2 <= 0
x167x153x1 - 2z167z153z1 <= 0
x167x154x2 - 1z167z154z2 <= 0
x167x159x1 - 1z167z159z1 <= 0
x167x159x2 - 1z167z159z2 <= 0
x167x194x2 - 1z167z194z2 <= 0
x167x251x1 - 2z167z251z1 <= 0
x167x148x2 - 2z167z148z2 <= 0
x167x59x2 - 2z167z59z2 <= 0
x167x64x2 - 1z167z64z2 <= 0
x167x84x2 - 2z167z84z2 <= 0
x167x60x2 - 2z167z60z2 <= 0
x167x156x1 - 1z167z156z1 <= 0
x167x156x2 - 1z167z156z2 <= 0
x167x131x1 - 2z167z131z1 <= 0
x167x126x2 - 2z167z126z2 <= 0
x167x226x1 - 2z167z226z1 <= 0
x167x70x1 - 1z167z70z1 <= 0
x167x90x1 - 1z167z90z1 <= 0
x167x187x1 - 1z167z187z1 <= 0
x167x187x2 - 1z167z187z2 <= 0
x181x16x3 - 1z181z16z3 <= 0
x181x153x1 - 2z181z153z1 <= 0
x181x154x3 - 1z181z154z3 <= 0
x181x159x1 - 1z181z159z1 <= 0
x181x194x3 - 1z181z194z3 <= 0
x181x215x3 - 2z181z215z3 <= 0
x181x232x3 - 2z181z232z3 <= 0
x181x251x1 - 2z181z251z1 <= 0
x181x64x3 - 1z181z64z3 <= 0
x181x37x3 - 2z181z37z3 <= 0
x181x156x1 - 1z181z156z1 <= 0
x181x131x1 - 2z181z131z1 <= 0
x181x226x1 - 2z181z226z1 <= 0
x181x70x1 - 1z181z70z1 <= 0
x181x70x3 - 1z181z70z3 <= 0
x181x90x1 - 1z181z90z1 <= 0
x181x90x3 - 1z181z90z3 <= 0
x181x187x1 - 1z181z187z1 <= 0
x27x159x2 - 1z27z159z2 <= 0
x27x148x2 - 2z27z148z2 <= 0
x27x59x2 - 2z27z59z2 <= 0
x27x64x2 - 1z27z64z2 <= 0
x27x84x2 - 2z27z84z2 <= 0
x27x60x2 - 2z27z60z2 <= 0
x27x156x2 - 1z27z156z2 <= 0
x27x126x2 - 2z27z126z2 <= 0
x27x187x2 - 1z27z187z2 <= 0
x235x153x1 - 2z235z153z1 <= 0
x235x159x1 - 1z235z159z1 <= 0
x235x251x1 - 2z235z251z1 <= 0
x235x156x1 - 1z235z156z1 <= 0
x235x131x1 - 2z235z131z1 <= 0
x235x226x1 - 2z235z226z1 <= 0
x235x70x1 - 1z235z70z1 <= 0
x235x90x1 - 1z235z90z1 <= 0
x235x187x1 - 1z235z187z1 <= 0
x113x16x3 - 1z113z16z3 <= 0
x113x153x1 - 2z113z153z1 <= 0
x113x159x1 - 1z113z159z1 <= 0
x113x215x3 - 2z113z215z3 <= 0
x113x251x1 - 2z113z251z1 <= 0
x113x64x3 - 1z113z64z3 <= 0
x113x37x3 - 2z113z37z3 <= 0
x113x156x1 - 1z113z156z1 <= 0
x113x131x1 - 2z113z131z1 <= 0
x113x226x1 - 2z113z226z1 <= 0
x113x70x1 - 1z113z70z1 <= 0
x113x70x3 - 1z113z70z3 <= 0
x113x90x1 - 1z113z90z1 <= 0
x113x90x3 - 1z113z90z3 <= 0
x113x187x1 - 1z113z187z1 <= 0
x243x16x3 - 1z243z16z3 <= 0
x243x154x3 - 1z243z154z3 <= 0
x243x194x3 - 1z243z194z3 <= 0
x243x215x3 - 2z243z215z3 <= 0
x243x232x3 - 2z243z232z3 <= 0
x243x240x3 - 1z243z240z3 <= 0
x243x64x3 - 1z243z64z3 <= 0
x243x37x3 - 2z243z37z3 <= 0
x243x70x3 - 1z243z70z3 <= 0
x243x90x3 - 1z243z90z3 <= 0
x16x60x2 - 2z16z60z2 <= 0
x16x37x3 - 2z16z37z3 <= 0
x16x156x2 - 1z16z156z2 <= 0
x16x126x2 - 2z16z126z2 <= 0
x16x70x3 - 1z16z70z3 <= 0
x16x90x3 - 1z16z90z3 <= 0
x16x187x2 - 1z16z187z2 <= 0
x16x0x2 <= 1
x16x0x3 <= 1
x19x126x2 - 2z19z126z2 <= 0
x19x187x2 - 1z19z187z2 <= 0
x19x0x2 <= 2
x153x156x1 - 1z153z156z1 <= 0
x153x131x1 - 2z153z131z1 <= 0
x153x226x1 - 2z153z226z1 <= 0
x153x70x1 - 1z153z70z1 <= 0
x153x90x1 - 1z153z90z1 <= 0
x153x187x1 - 1z153z187z1 <= 0
x153x0x1 <= 2
x154x37x3 - 2z154z37z3 <= 0
x154x156x2 - 1z154z156z2 <= 0
x154x126x2 - 2z154z126z2 <= 0
x154x70x3 - 1z154z70z3 <= 0
x154x90x3 - 1z154z90z3 <= 0
x154x187x2 - 1z154z187z2 <= 0
x154x0x2 <= 1
x154x0x3 <= 1
x159x156x1 - 1z159z156z1 <= 0
x159x156x2 - 1z159z156z2 <= 0
x159x131x1 - 2z159z131z1 <= 0
x159x126x2 - 2z159z126z2 <= 0
x159x226x1 - 2z159z226z1 <= 0
x159x70x1 - 1z159z70z1 <= 0
x159x90x1 - 1z159z90z1 <= 0
x159x187x1 - 1z159z187z1 <= 0
x159x187x2 - 1z159z187z2 <= 0
x159x0x1 <= 1
x159x0x2 <= 1
x194x60x2 - 2z194z60z2 <= 0
x194x37x3 - 2z194z37z3 <= 0
x194x156x2 - 1z194z156z2 <= 0
x194x126x2 - 2z194z126z2 <= 0
x194x70x3 - 1z194z70z3 <= 0
x194x90x3 - 1z194z90z3 <= 0
x194x187x2 - 1z194z187z2 <= 0
x194x0x2 <= 1
x194x0x3 <= 1
x215x37x3 - 2z215z37z3 <= 0
x215x70x3 - 1z215z70z3 <= 0
x215x90x3 - 1z215z90z3 <= 0
x215x0x3 <= 2
x232x37x3 - 2z232z37z3 <= 0
x232x70x3 - 1z232z70z3 <= 0
x232x90x3 - 1z232z90z3 <= 0
x232x0x3 <= 2
x240x37x3 - 2z240z37z3 <= 0
x240x156x1 - 1z240z156z1 <= 0
x240x131x1 - 2z240z131z1 <= 0
x240x226x1 - 2z240z226z1 <= 0
x240x70x1 - 1z240z70z1 <= 0
x240x70x3 - 1z240z70z3 <= 0
x240x90x1 - 1z240z90z1 <= 0
x240x90x3 - 1z240z90z3 <= 0
x240x187x1 - 1z240z187z1 <= 0
x240x0x1 <= 1
x240x0x3 <= 1
x259x60x2 - 2z259z60z2 <= 0
x259x156x2 - 1z259z156z2 <= 0
x259x126x2 - 2z259z126z2 <= 0
x259x187x2 - 1z259z187z2 <= 0
x259x0x2 <= 2
x251x156x1 - 1z251z156z1 <= 0
x251x131x1 - 2z251z131z1 <= 0
x251x226x1 - 2z251z226z1 <= 0
x251x70x1 - 1z251z70z1 <= 0
x251x90x1 - 1z251z90z1 <= 0
x251x187x1 - 1z251z187z1 <= 0
x251x0x1 <= 2
x148x64x2 - 1z148z64z2 <= 0
x148x60x2 - 2z148z60z2 <= 0
x148x156x2 - 1z148z156z2 <= 0
x148x126x2 - 2z148z126z2 <= 0
x148x187x2 - 1z148z187z2 <= 0
x148x0x2 <= 2
x59x60x2 - 2z59z60z2 <= 0
x59x156x2 - 1z59z156z2 <= 0
x59x126x2 - 2z59z126z2 <= 0
x59x187x2 - 1z59z187z2 <= 0
x59x0x2 <= 2
x64x60x2 - 2z64z60z2 <= 0
x64x37x3 - 2z64z37z3 <= 0
x64x156x2 - 1z64z156z2 <= 0
x64x126x2 - 2z64z126z2 <= 0
x64x70x3 - 1z64z70z3 <= 0
x64x90x3 - 1z64z90z3 <= 0
x64x187x2 - 1z64z187z2 <= 0
x64x0x2 <= 1
x64x0x3 <= 1
x84x156x2 - 1z84z156z2 <= 0
x84x126x2 - 2z84z126z2 <= 0
x84x187x2 - 1z84z187z2 <= 0
x84x0x2 <= 2
x60x156x2 - 1z60z156z2 <= 0
x60x126x2 - 2z60z126z2 <= 0
x60x187x2 - 1z60z187z2 <= 0
x60x0x2 <= 2
x37x70x3 - 1z37z70z3 <= 0
x37x90x3 - 1z37z90z3 <= 0
x37x0x3 <= 2
x156x70x1 - 1z156z70z1 <= 0
x156x90x1 - 1z156z90z1 <= 0
x156x187x1 - 1z156z187z1 <= 0
x156x187x2 - 1z156z187z2 <= 0
x156x0x1 <= 1
x156x0x2 <= 1
x131x70x1 - 1z131z70z1 <= 0
x131x90x1 - 1z131z90z1 <= 0
x131x0x1 <= 2
x126x0x2 <= 2
x226x187x1 - 1z226z187z1 <= 0
x226x0x1 <= 2
x70x0x1 <= 1
x70x0x3 <= 1
x90x0x1 <= 1
x90x0x3 <= 1
x187x0x1 <= 1
x187x0x2 <= 1

Bounds
s135 = 5.638403
s214 = 5.913559
s53 = 5.866703
s100 = 5.324860
s262 = 5.891377
s261 = 5.986559
s186 = 4.703370
s35 = 4.858010
s167 = 4.784980
s181 = 4.883020
s27 = 4.917670
s235 = 5.112110
s113 = 4.994340
s243 = 3.708300
6.000000 <= s16 <= 6.630000
6.000000 <= s19 <= 6.310000
6.000000 <= s153 <= 6.520000
6.000000 <= s154 <= 6.500000
6.000000 <= s159 <= 6.820000
6.000000 <= s194 <= 6.480000
6.000000 <= s215 <= 6.400000
6.000000 <= s232 <= 6.130000
6.000000 <= s240 <= 6.090000
6.000000 <= s259 <= 6.240000
6.020000 <= s251 <= 7.020000
6.030000 <= s148 <= 7.030000
6.050000 <= s59 <= 7.050000
6.140000 <= s64 <= 7.140000
6.170000 <= s84 <= 7.170000
6.320000 <= s60 <= 7.320000
6.390000 <= s37 <= 7.390000
6.410000 <= s156 <= 7.410000
6.420000 <= s131 <= 7.420000
6.480000 <= s126 <= 7.480000
6.530000 <= s226 <= 7.530000
6.540000 <= s70 <= 7.540000
6.610000 <= s90 <= 7.610000
6.670000 <= s187 <= 7.670000

General
x135x251x1 x135x148x2 x135x59x2 x135x64x2 x135x84x2 x135x60x2 x135x156x1 x135x156x2 x135x131x1 x135x126x2 x135x226x1 x135x70x1 x135x90x1 x135x187x1 x135x187x2 
x214x70x3 x214x90x3 
x53x59x2 x53x60x2 x53x156x2 x53x126x2 x53x187x2 
x100x16x3 x100x64x3 x100x37x3 x100x70x3 x100x90x3 
x262x37x3 x262x156x1 x262x131x1 x262x226x1 x262x70x1 x262x70x3 x262x90x1 x262x90x3 x262x187x1 
x261x37x3 x261x156x1 x261x131x1 x261x226x1 x261x70x1 x261x70x3 x261x90x1 x261x90x3 x261x187x1 
x186x16x2 x186x19x2 x186x153x1 x186x154x2 x186x159x1 x186x159x2 x186x194x2 x186x240x1 x186x259x2 x186x251x1 x186x148x2 x186x59x2 x186x64x2 x186x84x2 x186x60x2 x186x156x1 x186x156x2 x186x131x1 x186x126x2 x186x226x1 x186x70x1 x186x90x1 x186x187x1 x186x187x2 
x35x16x2 x35x154x2 x35x159x2 x35x194x2 x35x148x2 x35x59x2 x35x64x2 x35x84x2 x35x60x2 x35x156x2 x35x126x2 x35x187x2 
x167x16x2 x167x153x1 x167x154x2 x167x159x1 x167x159x2 x167x194x2 x167x251x1 x167x148x2 x167x59x2 x167x64x2 x167x84x2 x167x60x2 x167x156x1 x167x156x2 x167x131x1 x167x126x2 x167x226x1 x167x70x1 x167x90x1 x167x187x1 x167x187x2 
x181x16x3 x181x153x1 x181x154x3 x181x159x1 x181x194x3 x181x215x3 x181x232x3 x181x251x1 x181x64x3 x181x37x3 x181x156x1 x181x131x1 x181x226x1 x181x70x1 x181x70x3 x181x90x1 x181x90x3 x181x187x1 
x27x159x2 x27x148x2 x27x59x2 x27x64x2 x27x84x2 x27x60x2 x27x156x2 x27x126x2 x27x187x2 
x235x153x1 x235x159x1 x235x251x1 x235x156x1 x235x131x1 x235x226x1 x235x70x1 x235x90x1 x235x187x1 
x113x16x3 x113x153x1 x113x159x1 x113x215x3 x113x251x1 x113x64x3 x113x37x3 x113x156x1 x113x131x1 x113x226x1 x113x70x1 x113x70x3 x113x90x1 x113x90x3 x113x187x1 
x243x16x3 x243x154x3 x243x194x3 x243x215x3 x243x232x3 x243x240x3 x243x64x3 x243x37x3 x243x70x3 x243x90x3 
x16x60x2 x16x37x3 x16x156x2 x16x126x2 x16x70x3 x16x90x3 x16x187x2 x16x0x2 x16x0x3 
x19x126x2 x19x187x2 x19x0x2 
x153x156x1 x153x131x1 x153x226x1 x153x70x1 x153x90x1 x153x187x1 x153x0x1 
x154x37x3 x154x156x2 x154x126x2 x154x70x3 x154x90x3 x154x187x2 x154x0x2 x154x0x3 
x159x156x1 x159x156x2 x159x131x1 x159x126x2 x159x226x1 x159x70x1 x159x90x1 x159x187x1 x159x187x2 x159x0x1 x159x0x2 
x194x60x2 x194x37x3 x194x156x2 x194x126x2 x194x70x3 x194x90x3 x194x187x2 x194x0x2 x194x0x3 
x215x37x3 x215x70x3 x215x90x3 x215x0x3 
x232x37x3 x232x70x3 x232x90x3 x232x0x3 
x240x37x3 x240x156x1 x240x131x1 x240x226x1 x240x70x1 x240x70x3 x240x90x1 x240x90x3 x240x187x1 x240x0x1 x240x0x3 
x259x60x2 x259x156x2 x259x126x2 x259x187x2 x259x0x2 
x251x156x1 x251x131x1 x251x226x1 x251x70x1 x251x90x1 x251x187x1 x251x0x1 
x148x64x2 x148x60x2 x148x156x2 x148x126x2 x148x187x2 x148x0x2 
x59x60x2 x59x156x2 x59x126x2 x59x187x2 x59x0x2 
x64x60x2 x64x37x3 x64x156x2 x64x126x2 x64x70x3 x64x90x3 x64x187x2 x64x0x2 x64x0x3 
x84x156x2 x84x126x2 x84x187x2 x84x0x2 
x60x156x2 x60x126x2 x60x187x2 x60x0x2 
x37x70x3 x37x90x3 x37x0x3 
x156x70x1 x156x90x1 x156x187x1 x156x187x2 x156x0x1 x156x0x2 
x131x70x1 x131x90x1 x131x0x1 
x126x0x2 
x226x187x1 x226x0x1 
x70x0x1 x70x0x3 
x90x0x1 x90x0x3 
x187x0x1 x187x0x2 

Binaries
y16 y19 y153 y154 y159 y194 y215 y232 y240 y259 y251 y148 y59 y64 y84 y60 y37 y156 y131 y126 y226 y70 y90 y187 
z135z251z1 z135z148z2 z135z59z2 z135z64z2 z135z84z2 z135z60z2 z135z156z1 z135z156z2 z135z131z1 z135z126z2 z135z226z1 z135z70z1 z135z90z1 z135z187z1 z135z187z2 
z214z70z3 z214z90z3 
z53z59z2 z53z60z2 z53z156z2 z53z126z2 z53z187z2 
z100z16z3 z100z64z3 z100z37z3 z100z70z3 z100z90z3 
z262z37z3 z262z156z1 z262z131z1 z262z226z1 z262z70z1 z262z70z3 z262z90z1 z262z90z3 z262z187z1 
z261z37z3 z261z156z1 z261z131z1 z261z226z1 z261z70z1 z261z70z3 z261z90z1 z261z90z3 z261z187z1 
z186z16z2 z186z19z2 z186z153z1 z186z154z2 z186z159z1 z186z159z2 z186z194z2 z186z240z1 z186z259z2 z186z251z1 z186z148z2 z186z59z2 z186z64z2 z186z84z2 z186z60z2 z186z156z1 z186z156z2 z186z131z1 z186z126z2 z186z226z1 z186z70z1 z186z90z1 z186z187z1 z186z187z2 
z35z16z2 z35z154z2 z35z159z2 z35z194z2 z35z148z2 z35z59z2 z35z64z2 z35z84z2 z35z60z2 z35z156z2 z35z126z2 z35z187z2 
z167z16z2 z167z153z1 z167z154z2 z167z159z1 z167z159z2 z167z194z2 z167z251z1 z167z148z2 z167z59z2 z167z64z2 z167z84z2 z167z60z2 z167z156z1 z167z156z2 z167z131z1 z167z126z2 z167z226z1 z167z70z1 z167z90z1 z167z187z1 z167z187z2 
z181z16z3 z181z153z1 z181z154z3 z181z159z1 z181z194z3 z181z215z3 z181z232z3 z181z251z1 z181z64z3 z181z37z3 z181z156z1 z181z131z1 z181z226z1 z181z70z1 z181z70z3 z181z90z1 z181z90z3 z181z187z1 
z27z159z2 z27z148z2 z27z59z2 z27z64z2 z27z84z2 z27z60z2 z27z156z2 z27z126z2 z27z187z2 
z235z153z1 z235z159z1 z235z251z1 z235z156z1 z235z131z1 z235z226z1 z235z70z1 z235z90z1 z235z187z1 
z113z16z3 z113z153z1 z113z159z1 z113z215z3 z113z251z1 z113z64z3 z113z37z3 z113z156z1 z113z131z1 z113z226z1 z113z70z1 z113z70z3 z113z90z1 z113z90z3 z113z187z1 
z243z16z3 z243z154z3 z243z194z3 z243z215z3 z243z232z3 z243z240z3 z243z64z3 z243z37z3 z243z70z3 z243z90z3 
z16z60z2 z16z37z3 z16z156z2 z16z126z2 z16z70z3 z16z90z3 z16z187z2 
z19z126z2 z19z187z2 
z153z156z1 z153z131z1 z153z226z1 z153z70z1 z153z90z1 z153z187z1 
z154z37z3 z154z156z2 z154z126z2 z154z70z3 z154z90z3 z154z187z2 
z159z156z1 z159z156z2 z159z131z1 z159z126z2 z159z226z1 z159z70z1 z159z90z1 z159z187z1 z159z187z2 
z194z60z2 z194z37z3 z194z156z2 z194z126z2 z194z70z3 z194z90z3 z194z187z2 
z215z37z3 z215z70z3 z215z90z3 
z232z37z3 z232z70z3 z232z90z3 
z240z37z3 z240z156z1 z240z131z1 z240z226z1 z240z70z1 z240z70z3 z240z90z1 z240z90z3 z240z187z1 
z259z60z2 z259z156z2 z259z126z2 z259z187z2 
z251z156z1 z251z131z1 z251z226z1 z251z70z1 z251z90z1 z251z187z1 
z148z64z2 z148z60z2 z148z156z2 z148z126z2 z148z187z2 
z59z60z2 z59z156z2 z59z126z2 z59z187z2 
z64z60z2 z64z37z3 z64z156z2 z64z126z2 z64z70z3 z64z90z3 z64z187z2 
z84z156z2 z84z126z2 z84z187z2 
z60z156z2 z60z126z2 z60z187z2 
z37z70z3 z37z90z3 
z156z70z1 z156z90z1 z156z187z1 z156z187z2 
z131z70z1 z131z90z1 

z226z187z1 




End